
Gurobi 10.0.2 (win64) logging started Fri Jun 21 03:40:39 2024

Set parameter LogFile to value "log/log_difficulty1_MNL_DESKTOP-S7OVCUR_9_21.txt"
Gurobi Optimizer version 10.0.2 build v10.0.2rc0 (win64)

CPU model: Intel(R) Core(TM) i7-10510U CPU @ 1.80GHz, instruction set [SSE2|AVX|AVX2]
Thread count: 4 physical cores, 8 logical processors, using up to 8 threads

Optimize a model with 2020 rows, 676 columns and 4612 nonzeros
Model fingerprint: 0x4e068db7
Variable types: 364 continuous, 312 integer (312 binary)
Coefficient statistics:
  Matrix range     [1e-03, 1e+03]
  Objective range  [1e+02, 6e+02]
  Bounds range     [1e+00, 1e+00]
  RHS range        [1e+00, 1e+00]
Found heuristic solution: objective -0.0000000
Presolve removed 224 rows and 104 columns
Presolve time: 0.03s
Presolved: 1796 rows, 572 columns, 4225 nonzeros
Found heuristic solution: objective 2084.0263018
Variable types: 308 continuous, 264 integer (264 binary)

Root relaxation: objective 1.483303e+04, 440 iterations, 0.00 seconds (0.00 work units)

    Nodes    |    Current Node    |     Objective Bounds      |     Work
 Expl Unexpl |  Obj  Depth IntInf | Incumbent    BestBd   Gap | It/Node Time

     0     0 14833.0315    0  162 2084.02630 14833.0315   612%     -    0s
H    0     0                    8116.6011005 14833.0315  82.7%     -    0s
H    0     0                    9221.5519821 14833.0315  60.9%     -    0s
H    0     0                    12188.850526 14833.0315  21.7%     -    0s
     0     0 13910.5416    0  178 12188.8505 13910.5416  14.1%     -    0s
H    0     0                    12345.493466 13910.5416  12.7%     -    0s
     0     0 13906.6982    0  185 12345.4935 13906.6982  12.6%     -    0s
     0     0 13906.5803    0  186 12345.4935 13906.5803  12.6%     -    0s
H    0     0                    12407.293385 13906.5803  12.1%     -    0s
     0     0 13633.0197    0  186 12407.2934 13633.0197  9.88%     -    0s
H    0     0                    12833.951039 13633.0197  6.23%     -    0s
H    0     0                    12862.067924 13611.9533  5.83%     -    0s
     0     0 13611.9533    0  180 12862.0679 13611.9533  5.83%     -    0s
     0     0 13603.5939    0  181 12862.0679 13603.5939  5.77%     -    0s
     0     0 13603.3591    0  181 12862.0679 13603.3591  5.76%     -    0s
H    0     0                    13334.331399 13603.3591  2.02%     -    0s
H    0     0                    13398.038232 13603.3591  1.53%     -    0s
     0     0 13478.9245    0  179 13398.0382 13478.9245  0.60%     -    0s
     0     0 13478.9078    0  178 13398.0382 13478.9078  0.60%     -    0s
     0     0 13467.6340    0  176 13398.0382 13467.6340  0.52%     -    0s
     0     0 13463.7304    0  175 13398.0382 13463.7304  0.49%     -    0s
     0     0 13463.6968    0  176 13398.0382 13463.6968  0.49%     -    0s
     0     0 13463.6916    0  175 13398.0382 13463.6916  0.49%     -    0s
     0     0 13441.7286    0  183 13398.0382 13441.7286  0.33%     -    0s
     0     0 13440.5294    0  169 13398.0382 13440.5294  0.32%     -    0s
     0     0 13436.6510    0  177 13398.0382 13436.6510  0.29%     -    0s
     0     0 13436.1460    0  182 13398.0382 13436.1460  0.28%     -    0s
     0     0 13429.6447    0  176 13398.0382 13429.6447  0.24%     -    0s
     0     0 13428.2510    0  178 13398.0382 13428.2510  0.23%     -    0s
     0     0 13427.9985    0  179 13398.0382 13427.9985  0.22%     -    0s
     0     0 13427.9985    0  179 13398.0382 13427.9985  0.22%     -    0s

Cutting planes:
  Gomory: 31
  Implied bound: 20
  MIR: 55
  Flow cover: 122
  RLT: 68
  Relax-and-lift: 11
  BQP: 13

Explored 1 nodes (2222 simplex iterations) in 0.65 seconds (0.22 work units)
Thread count was 8 (of 8 available processors)

Solution count 10: 13398 13334.3 12862.1 ... 2084.03

Optimal solution found (tolerance 1.00e-04)
Best objective 1.339803823226e+04, best bound 1.339803823226e+04, gap 0.0000%
